c Parsing PB file...
s UNSATISFIABLE
c _______________________________________________________________________________
c 
restarts              : 0
conflicts             : 0              (0 /sec)
decisions             : 0              ( nan % random) (0 /sec)
propagations          : 448            (9410 /sec)
conflict literals     : 0              ( nan % deleted)
Memory used           : 5.62 MB
CPU time              : 0.047607 s
c _______________________________________________________________________________
